p cnf 94 121
-1 3 6 8 9 10 13 14 66 -2 85 -87 -90 -92 0 
-3 1 6 8 9 10 13 14 66 -4 -5 54 85 -87 -90 -92 0 
-3 1 6 8 9 10 13 14 66 -4 -5 54 86 0 
-1 3 6 8 9 10 13 14 66 -2 86 0 
-6 1 3 8 9 10 13 14 66 -4 -5 54 -7 85 -87 -90 -92 0 
-8 1 3 6 9 10 13 14 66 -2 85 -87 -90 -92 0 
-9 1 3 6 8 10 13 14 66 -2 86 0 
-8 1 3 6 9 10 13 14 66 -2 86 0 
-9 1 3 6 8 10 13 14 66 -2 85 -87 -90 -92 0 
-6 1 3 8 9 10 13 14 66 -4 -5 54 -7 86 0 
-10 1 3 6 8 9 13 14 66 -5 54 -4 85 -87 -90 -92 0 
-11 28 87 -90 -92 0 
-12 83 87 -90 -92 0 
-8 1 3 6 9 10 13 14 66 -2 88 0 
-8 1 3 6 9 10 13 14 66 -2 89 -87 -90 -92 0 
-6 1 3 8 9 10 13 14 66 -4 -7 86 0 
-6 1 3 8 9 10 13 14 66 -4 -7 85 -87 -90 -92 0 
-13 1 3 6 8 9 10 14 66 -2 86 0 
-13 1 3 6 8 9 10 14 66 -2 85 -87 -90 -92 0 
-14 1 3 6 8 9 10 13 66 -2 86 0 
-14 1 3 6 8 9 10 13 66 -2 85 -87 -90 -92 0 
-14 1 3 6 8 9 10 13 66 -15 65 -2 86 0 
-14 1 3 6 8 9 10 13 66 -15 65 -2 85 -87 -90 -92 0 
-8 1 3 6 9 10 13 14 66 88 0 
-8 1 3 6 9 10 13 14 66 89 -87 -90 -92 0 
-16 74 -17 21 34 38 62 69 71 72 90 -87 -92 0 
-18 20 45 79 87 -90 -92 0 
-19 90 -87 -92 0 
-16 74 -20 18 45 79 90 -87 -92 0 
-21 17 34 38 62 69 71 72 87 -90 -92 0 
-22 56 87 -90 -92 0 
-20 18 45 79 90 -87 -92 0 
-23 87 -90 -92 0 
-24 90 -87 -92 0 
-25 90 -87 -92 0 
-26 87 -90 -92 0 
-27 -28 11 87 -90 -92 0 
-29 87 -90 -92 0 
-30 36 -11 28 91 -87 -90 -92 0 
-31 -32 87 -90 -92 0 
-33 -28 11 87 -90 -92 0 
-28 11 87 -90 -92 0 
-30 36 -34 17 21 38 62 69 71 72 87 -90 -92 0 
-31 -35 46 51 73 87 -90 -92 0 
-35 46 51 73 87 -90 -92 0 
-33 -21 17 34 38 62 69 71 72 87 -90 -92 0 
-36 30 -37 87 -90 -92 0 
-38 17 21 34 62 69 71 72 87 -90 -92 0 
-39 41 44 48 55 61 87 -90 -92 0 
-40 47 60 78 -20 18 45 79 90 -87 -92 0 
-40 47 60 78 -41 39 44 48 55 61 90 -87 -92 0 
-42 -38 17 21 34 62 69 71 72 87 -90 -92 0 
-36 30 -43 92 -87 -90 0 
-39 41 44 48 55 61 92 -87 -90 0 
-38 17 21 34 62 69 71 72 92 -87 -90 0 
-16 74 -41 39 44 48 55 61 90 -87 -92 0 
-11 28 -44 39 41 48 55 61 -45 18 20 79 -30 36 91 -87 -90 -92 0 
-11 28 -33 -30 36 -46 35 51 73 91 -87 -90 -92 0 
-11 28 -47 40 60 78 87 -90 -92 0 
-5 54 90 -87 -92 0 
-48 39 41 44 55 61 -35 46 51 73 87 -90 -92 0 
-49 58 80 -50 90 -87 -92 0 
-51 35 46 73 -52 -41 39 44 48 55 61 90 -87 -92 0 
-10 1 3 6 8 9 13 14 66 -4 -5 54 86 0 
-16 74 -53 -5 54 90 -87 -92 0 
-54 5 87 -90 -92 0 
-55 39 41 44 48 61 87 -90 -92 0 
-11 28 90 -87 -92 0 
-11 28 -56 22 92 -87 -90 0 
-16 74 92 -87 -90 0 
-16 74 -57 76 87 -90 -92 0 
-58 49 80 87 -90 -92 0 
-11 28 -59 87 -90 -92 0 
-60 40 47 78 87 -90 -92 0 
-61 39 41 44 48 55 87 -90 -92 0 
-62 17 21 34 38 69 71 72 -46 35 51 73 -63 93 -87 -90 -92 0 
-64 90 -87 -92 0 
-16 74 -65 15 90 -87 -92 0 
-62 17 21 34 38 69 71 72 93 -87 -90 -92 0 
-19 -46 35 51 73 90 -87 -92 0 
-49 58 80 -41 39 44 48 55 61 -46 35 51 73 90 -87 -92 0 
-16 74 -41 39 44 48 55 61 -46 35 51 73 90 -87 -92 0 
-66 1 3 6 8 9 10 13 14 -2 85 -87 -90 -92 0 
-66 1 3 6 8 9 10 13 14 -2 86 0 
-54 5 -7 87 -90 -92 0 
-16 74 -67 81 90 -87 -92 0 
-68 87 -90 -92 0 
-69 17 21 34 38 62 71 72 87 -90 -92 0 
-41 39 44 48 55 61 90 -87 -92 0 
-70 87 -90 -92 0 
-32 87 -90 -92 0 
-71 17 21 34 38 62 69 72 87 -90 -92 0 
-51 35 46 73 -59 90 -87 -92 0 
-72 17 21 34 38 62 69 71 90 -87 -92 0 
-53 87 -90 -92 0 
-12 83 92 -87 -90 0 
-46 35 51 73 92 -87 -90 0 
-73 35 46 51 90 -87 -92 0 
-74 16 87 -90 -92 0 
-16 74 87 -90 -92 0 
-47 40 60 78 -46 35 51 73 -7 87 -90 -92 0 
-2 87 -90 -92 0 
-75 87 -90 -92 0 
-56 22 -7 87 -90 -92 0 
-56 22 -76 57 92 -87 -90 0 
-46 35 51 73 -76 57 92 -87 -90 0 
-60 40 47 78 92 -87 -90 0 
-11 28 -7 87 -90 -92 0 
-77 -42 -28 11 87 -90 -92 0 
-46 35 51 73 -7 87 -90 -92 0 
-78 40 47 60 87 -90 -92 0 
-79 18 20 45 87 -90 -92 0 
-80 49 58 87 -90 -92 0 
-36 30 87 -90 -92 0 
-81 67 87 -90 -92 0 
-42 -34 17 21 38 62 69 71 72 87 -90 -92 0 
-82 87 -90 -92 0 
-49 58 80 -83 12 -73 35 46 51 94 -87 -90 -92 0 
-83 12 -64 94 -87 -90 -92 0 
-42 -47 40 60 78 -84 87 -90 -92 0 
-40 47 60 78 -67 81 90 -87 -92 0 
